NAME : single
TYPE : ATSP
DIMENSION : 12
EDGE_WEIGHT_TYPE : EXPLICIT
EDGE_WEIGHT_FORMAT : FULL_MATRIX
EDGE_WEIGHT_SECTION
0 1162 879 806 789 630 355 458 409 275 107 136 
0 0 261 234 320 506 50000 718 683 808 844 934 
0 240 0 295 163 352 642 562 506 621 666 750 
0 234 295 0 200 309 567 486 446 556 602 686 
0 320 163 200 0 290 480 398 436 488 496 584 
0 506 352 309 290 0 214 269 171 195 289 298 
0 50000 642 567 480 214 0 286 217 188 183 216 
0 718 562 486 398 269 164 0 262 230 144 227 
0 683 506 446 436 171 217 262 0 121 107 243 
0 808 621 556 488 195 188 230 107 0 0 249 
0 844 666 602 496 289 183 144 243 249 0 199 
0 934 750 686 584 298 216 227 201 150 199 0 
